c Pigeonhole principle: fitting 3 pigeons into 2 holes (unsatisfiable)
c Variables p_i_j represent "pigeon i is in hole j"
c p_1_1=1, p_1_2=2, p_2_1=3, p_2_2=4, p_3_1=5, p_3_2=6
c
c Each pigeon must be in at least one hole
c (p_1_1 OR p_1_2)
c (p_2_1 OR p_2_2)
c (p_3_1 OR p_3_2)
c
c No hole can contain more than one pigeon
c (NOT p_1_1 OR NOT p_2_1)
c (NOT p_1_1 OR NOT p_3_1)
c (NOT p_2_1 OR NOT p_3_1)
c (NOT p_1_2 OR NOT p_2_2)
c (NOT p_1_2 OR NOT p_3_2)
c (NOT p_2_2 OR NOT p_3_2)
p cnf 6 9
1 2 0
3 4 0
5 6 0
-1 -3 0
-1 -5 0
-3 -5 0
-2 -4 0
-2 -6 0
-4 -6 0 